Route #1: 51 32 26 17 22 40 13 29 15 61 10 6 9 43
Route #2: 21 2 39 63 57 27 38 47 60 37 11 31 64 48 49 7 25 28 66 16 30 5 4
Route #3: 41 59 34 33
Route #4: 55 42 54 53 19 18 14 36 35 23 20 58 46 12 45 3 8 50 65 62
Route #5: 1 24 52 44
Route #6: 56
Route #7: 
Route #8: 
Route #9: 
cost 1725.4583751487348
